Maximize
  - 15 x0 + 46 x1 - 42 x2 - 16 x3 - 33 x4 + 34 x5 + 39 x6 + 0 x7 + 26 x8
   + 27 x9 + 7 x10 + 4 x11 + 49 x12 - 38 x13 - 38 x14 - 7 x15 + 0 x16
   - 36 x17 + 3 x18 + 11 x19 + 0 x20 - 31 x21 + 18 x22 + 0 x23 + 0 x24
   + 32 x25 - 17 x26 + 12 x27 + 44 x28 - 45 x29 + 24 x30 + 27 x31 - 44 x32
   + 20 x33 + 14 x34 + 9 x35 + 47 x36 - 47 x37 - 32 x38 + 0 x39 + [
   - 16 x0 * x1 + 58 x0 * x2 + 98 x0 * x3 - 88 x0 * x4 - 50 x0 * x5
   - 2 x0 * x6 - 30 x0 * x9 - 22 x0 * x10 - 40 x0 * x11 + 52 x0 * x12
   - 58 x0 * x13 - 48 x0 * x14 - 30 x0 * x15 - 8 x0 * x16 + 24 x0 * x17
   + 80 x0 * x18 + 70 x0 * x19 + 78 x0 * x20 + 32 x0 * x21 - 2 x0 * x22
   + 76 x0 * x23 - 54 x0 * x24 - 8 x0 * x25 + 68 x0 * x26 - 84 x0 * x27
   - 14 x0 * x29 + 40 x0 * x30 + 44 x0 * x31 - 14 x0 * x32 - 80 x0 * x33
   - 50 x0 * x35 + 72 x0 * x36 + 80 x0 * x37 + 32 x0 * x38 + 27 x1 ^2
   + 80 x1 * x2 - 62 x1 * x3 - 32 x1 * x4 - 66 x1 * x6 - 10 x1 * x8
   + 34 x1 * x9 + 72 x1 * x10 - 2 x1 * x11 + 42 x1 * x12 - 20 x1 * x13
   + 8 x1 * x15 - 62 x1 * x17 + 52 x1 * x18 + 54 x1 * x19 - 56 x1 * x20
   + 24 x1 * x21 - 18 x1 * x22 + 82 x1 * x23 - 56 x1 * x24 + 72 x1 * x25
   - 74 x1 * x27 - 60 x1 * x28 - 36 x1 * x29 - 86 x1 * x30 + 12 x1 * x31
   + 82 x1 * x33 - 32 x1 * x34 + 96 x1 * x35 + 12 x1 * x36 + 74 x1 * x37
   + 24 x1 * x38 + 22 x1 * x39 + 29 x2 ^2 - 44 x2 * x3 - 74 x2 * x4
   + 28 x2 * x5 - 38 x2 * x6 + 58 x2 * x7 - 82 x2 * x8 + 24 x2 * x9
   + 78 x2 * x10 + 60 x2 * x11 - 76 x2 * x12 + 38 x2 * x13 - 32 x2 * x14
   + 12 x2 * x15 + 92 x2 * x16 - 56 x2 * x17 + 60 x2 * x19 + 32 x2 * x20
   - 14 x2 * x21 + 42 x2 * x22 - 46 x2 * x23 + 24 x2 * x25 - 64 x2 * x26
   + 10 x2 * x27 + 34 x2 * x28 - 90 x2 * x29 - 84 x2 * x30 - 28 x2 * x31
   - 54 x2 * x32 + 96 x2 * x33 + 34 x2 * x34 + 58 x2 * x35 - 8 x2 * x36
   + 16 x2 * x37 + 4 x2 * x38 - 46 x3 ^2 - 72 x3 * x4 - 40 x3 * x5
   - 42 x3 * x6 - 70 x3 * x8 - 40 x3 * x9 + 94 x3 * x10 + 26 x3 * x11
   - 46 x3 * x12 + 64 x3 * x13 - 36 x3 * x14 - 88 x3 * x15 + 92 x3 * x16
   + 66 x3 * x17 - 76 x3 * x18 - 48 x3 * x19 + 10 x3 * x20 + 16 x3 * x21
   + 74 x3 * x22 + 76 x3 * x23 + 64 x3 * x24 - 18 x3 * x25 + 34 x3 * x26
   + 40 x3 * x27 - 76 x3 * x28 - 96 x3 * x29 - 78 x3 * x30 - 32 x3 * x31
   - 56 x3 * x32 + 36 x3 * x34 + 96 x3 * x36 + 52 x3 * x37 - 78 x3 * x38
   + 48 x3 * x39 + 46 x4 ^2 + 38 x4 * x6 + 58 x4 * x7 + 18 x4 * x8
   - 82 x4 * x9 + 64 x4 * x10 + 96 x4 * x11 + 92 x4 * x12 + 28 x4 * x14
   - 40 x4 * x15 - 28 x4 * x16 - 4 x4 * x18 + 26 x4 * x21 + 36 x4 * x22
   - 38 x4 * x23 - 34 x4 * x24 + 10 x4 * x25 - 90 x4 * x26 + 98 x4 * x27
   - 82 x4 * x28 + 34 x4 * x29 - 66 x4 * x30 + 4 x4 * x31 - 40 x4 * x32
   - 50 x4 * x33 - 60 x4 * x34 - 70 x4 * x35 + 86 x4 * x36 - 70 x4 * x37
   - 6 x4 * x38 - 90 x4 * x39 + 39 x5 ^2 + 90 x5 * x6 - 16 x5 * x8
   - 2 x5 * x9 + 40 x5 * x10 + 86 x5 * x11 + 36 x5 * x12 - 46 x5 * x13
   - 8 x5 * x14 + 2 x5 * x15 - 8 x5 * x16 - 52 x5 * x17 - 44 x5 * x18
   + 78 x5 * x19 - 28 x5 * x20 - 58 x5 * x21 - 22 x5 * x23 + 40 x5 * x24
   + 96 x5 * x26 + 54 x5 * x27 + 12 x5 * x28 + 92 x5 * x29 + 86 x5 * x30
   + 10 x5 * x31 - 84 x5 * x32 - 86 x5 * x33 + 30 x5 * x34 - 14 x5 * x35
   + 72 x5 * x36 + 20 x5 * x37 - 62 x5 * x38 + 22 x5 * x39 + 30 x6 ^2
   - 92 x6 * x7 - 60 x6 * x8 - 40 x6 * x9 + 30 x6 * x10 + 44 x6 * x11
   + 54 x6 * x12 + 80 x6 * x13 - 16 x6 * x14 + 62 x6 * x15 + 62 x6 * x16
   + 60 x6 * x17 + 68 x6 * x18 - 28 x6 * x20 + 66 x6 * x21 - 84 x6 * x22
   + 72 x6 * x23 + 92 x6 * x24 - 34 x6 * x25 + 54 x6 * x26 - 62 x6 * x27
   + 2 x6 * x29 + 34 x6 * x30 + 88 x6 * x31 + 60 x6 * x32 - 36 x6 * x33
   + 68 x6 * x34 - 38 x6 * x35 - 22 x6 * x36 + 92 x6 * x37 + 92 x6 * x38
   + 32 x6 * x39 - 38 x7 ^2 - 58 x7 * x8 + 38 x7 * x9 - 48 x7 * x11
   - 26 x7 * x12 - 94 x7 * x13 + 26 x7 * x14 - 34 x7 * x15 + 28 x7 * x16
   - 96 x7 * x18 + 98 x7 * x19 - 84 x7 * x20 - 46 x7 * x21 - 4 x7 * x22
   - 70 x7 * x23 + 68 x7 * x26 - 86 x7 * x27 - 22 x7 * x28 - 60 x7 * x29
   + 88 x7 * x30 - 88 x7 * x31 + 70 x7 * x32 - 32 x7 * x33 + 12 x7 * x35
   + 14 x7 * x37 - 16 x7 * x38 + 78 x7 * x39 - 42 x8 ^2 + 58 x8 * x10
   + 64 x8 * x11 - 80 x8 * x13 - 22 x8 * x14 - 68 x8 * x15 - 26 x8 * x16
   - 92 x8 * x17 + 2 x8 * x18 - 90 x8 * x20 + 76 x8 * x21 + 88 x8 * x22
   - 66 x8 * x23 - 42 x8 * x24 + 22 x8 * x25 + 38 x8 * x26 - 60 x8 * x28
   - 88 x8 * x30 + 96 x8 * x31 + 18 x8 * x32 + 26 x8 * x33 - 56 x8 * x34
   - 86 x8 * x35 - 56 x8 * x36 - 78 x8 * x38 - 76 x8 * x39 - 49 x9 ^2
   + 20 x9 * x10 + 80 x9 * x12 + 46 x9 * x13 - 64 x9 * x14 + 18 x9 * x15
   - 94 x9 * x16 + 24 x9 * x17 + 80 x9 * x19 - 38 x9 * x20 - 52 x9 * x21
   - 86 x9 * x22 - 98 x9 * x23 + 20 x9 * x24 - 82 x9 * x25 + 22 x9 * x26
   + 34 x9 * x27 - 66 x9 * x28 - 98 x9 * x29 - 80 x9 * x30 - 92 x9 * x31
   + 12 x9 * x32 - 50 x9 * x33 + 22 x9 * x34 - 50 x9 * x35 - 80 x9 * x36
   + 22 x9 * x37 - 20 x9 * x38 + 74 x9 * x39 - 48 x10 ^2 + 60 x10 * x11
   + 82 x10 * x12 + 4 x10 * x13 + 4 x10 * x15 - 66 x10 * x16 - 64 x10 * x17
   - 48 x10 * x19 - 12 x10 * x20 + 2 x10 * x21 - 4 x10 * x22 + 6 x10 * x23
   + 96 x10 * x24 + 94 x10 * x25 - 38 x10 * x26 + 32 x10 * x27
   - 70 x10 * x28 - 66 x10 * x29 + 62 x10 * x30 + 64 x10 * x31
   - 86 x10 * x32 + 84 x10 * x33 - 44 x10 * x35 + 88 x10 * x36
   + 50 x10 * x37 + 35 x11 ^2 + 80 x11 * x12 + 72 x11 * x13 + 14 x11 * x14
   + 34 x11 * x15 + 20 x11 * x16 - 10 x11 * x17 - 22 x11 * x18
   - 62 x11 * x19 + 38 x11 * x21 + 82 x11 * x22 - 42 x11 * x23
   - 46 x11 * x26 + 72 x11 * x27 + 26 x11 * x28 + 16 x11 * x29
   - 32 x11 * x30 - 22 x11 * x31 - 68 x11 * x32 - 40 x11 * x33
   + 74 x11 * x34 - 82 x11 * x35 - 60 x11 * x36 + 16 x11 * x37
   - 12 x11 * x38 + 66 x11 * x39 + 22 x12 ^2 - 26 x12 * x13 - 80 x12 * x15
   - 78 x12 * x21 - 74 x12 * x22 - 16 x12 * x23 + 44 x12 * x24
   + 4 x12 * x25 + 72 x12 * x26 + 80 x12 * x27 + 80 x12 * x28
   + 10 x12 * x29 - 36 x12 * x30 + 46 x12 * x31 - 40 x12 * x32
   + 38 x12 * x34 - 54 x12 * x35 + 86 x12 * x36 - 24 x12 * x37
   + 44 x12 * x38 + 20 x13 * x14 - 28 x13 * x15 - 74 x13 * x17
   - 26 x13 * x18 + 38 x13 * x19 + 62 x13 * x20 + 6 x13 * x21
   - 96 x13 * x22 - 22 x13 * x23 + 22 x13 * x24 + 32 x13 * x26
   + 44 x13 * x28 + 66 x13 * x29 + 70 x13 * x31 + 82 x13 * x32
   - 44 x13 * x33 - 18 x13 * x34 + 58 x13 * x35 + 10 x13 * x36
   + 20 x13 * x37 - 82 x13 * x38 + 34 x13 * x39 - 34 x14 ^2 + 26 x14 * x15
   + 80 x14 * x16 + 44 x14 * x17 + 88 x14 * x18 + 78 x14 * x19
   + 66 x14 * x20 + 20 x14 * x21 - 38 x14 * x22 + 52 x14 * x23
   - 24 x14 * x24 - 50 x14 * x25 - 82 x14 * x26 - 24 x14 * x28
   + 14 x14 * x29 + 28 x14 * x30 - 40 x14 * x31 - 60 x14 * x32
   - 82 x14 * x34 + 26 x14 * x35 + 90 x14 * x36 - 32 x14 * x37
   + 98 x14 * x38 - 18 x14 * x39 + 35 x15 ^2 + 78 x15 * x17 - 64 x15 * x18
   - 42 x15 * x19 - 36 x15 * x20 + 80 x15 * x21 + 2 x15 * x22 + 2 x15 * x23
   + 28 x15 * x24 + 28 x15 * x25 - 8 x15 * x26 + 20 x15 * x28
   + 18 x15 * x29 + 50 x15 * x30 - 46 x15 * x31 + 2 x15 * x32
   + 40 x15 * x33 + 56 x15 * x34 + 62 x15 * x35 + 98 x15 * x37
   - 98 x15 * x38 - 68 x15 * x39 - 41 x16 ^2 - 58 x16 * x17 + 44 x16 * x18
   - 70 x16 * x19 - 50 x16 * x20 + 10 x16 * x21 - 48 x16 * x22
   + 34 x16 * x23 - 30 x16 * x24 - 80 x16 * x25 - 40 x16 * x26
   + 16 x16 * x27 + 26 x16 * x28 - 74 x16 * x29 + 32 x16 * x30
   - 86 x16 * x31 + 14 x16 * x32 - 52 x16 * x33 + 6 x16 * x35
   + 42 x16 * x36 - 68 x16 * x37 + 64 x16 * x38 + 34 x16 * x39
   + 88 x17 * x18 + 84 x17 * x19 - 76 x17 * x20 + 6 x17 * x21
   + 84 x17 * x22 + 18 x17 * x23 + 46 x17 * x24 + 2 x17 * x25
   + 98 x17 * x26 - 34 x17 * x27 - 4 x17 * x28 + 2 x17 * x29 + 64 x17 * x30
   - 98 x17 * x31 - 12 x17 * x32 - 50 x17 * x33 + 68 x17 * x34
   - 88 x17 * x36 + 80 x17 * x37 + 52 x17 * x38 - 28 x17 * x39 - 32 x18 ^2
   - 8 x18 * x19 + 84 x18 * x20 + 44 x18 * x21 - 2 x18 * x22 - 60 x18 * x24
   - 2 x18 * x25 - 14 x18 * x26 - 4 x18 * x27 - 70 x18 * x28 - 86 x18 * x29
   + 6 x18 * x30 + 76 x18 * x31 - 30 x18 * x32 - 12 x18 * x33 + 2 x18 * x34
   + 68 x18 * x35 - 12 x18 * x36 - 92 x18 * x37 + 2 x18 * x38 + 4 x18 * x39
   + 36 x19 ^2 + 72 x19 * x20 + 64 x19 * x21 + 84 x19 * x22 - 68 x19 * x24
   - 32 x19 * x25 + 26 x19 * x26 + 20 x19 * x27 + 36 x19 * x28
   + 58 x19 * x29 + 82 x19 * x30 - 60 x19 * x31 + 2 x19 * x32
   + 16 x19 * x33 + 44 x19 * x34 + 46 x19 * x35 - 24 x19 * x36
   - 12 x19 * x37 - 62 x19 * x38 + 32 x19 * x39 - 7 x20 ^2 - 94 x20 * x22
   - 40 x20 * x25 + 6 x20 * x26 - 4 x20 * x27 - 98 x20 * x28 - 92 x20 * x29
   + 40 x20 * x31 + 42 x20 * x32 - 90 x20 * x33 - 34 x20 * x34
   + 66 x20 * x36 + 36 x20 * x38 - 27 x21 ^2 - 44 x21 * x23 + 34 x21 * x24
   + 26 x21 * x25 - 28 x21 * x26 + 46 x21 * x27 + 52 x21 * x28
   + 36 x21 * x29 + 2 x21 * x30 - 58 x21 * x31 + 4 x21 * x32 - 76 x21 * x33
   - 28 x21 * x34 + 78 x21 * x36 + 72 x21 * x37 + 64 x21 * x38
   - 48 x21 * x39 + 20 x22 * x23 - 14 x22 * x24 - 4 x22 * x25
   - 52 x22 * x26 + 16 x22 * x27 - 24 x22 * x28 + 12 x22 * x30
   - 8 x22 * x31 - 26 x22 * x32 + 8 x22 * x33 - 20 x22 * x34 + 32 x22 * x35
   - 24 x22 * x36 - 46 x22 * x37 - 62 x22 * x38 + 42 x22 * x39 - 49 x23 ^2
   + 84 x23 * x24 - 14 x23 * x25 - 60 x23 * x26 - 36 x23 * x27
   - 92 x23 * x28 + 70 x23 * x29 - 70 x23 * x30 + 42 x23 * x31
   - 60 x23 * x32 + 94 x23 * x33 + 16 x23 * x34 + 2 x23 * x35 + 4 x23 * x36
   + 62 x23 * x37 - 68 x23 * x38 + 90 x23 * x39 - 40 x24 ^2 - 86 x24 * x25
   - 48 x24 * x26 - 34 x24 * x27 + 62 x24 * x28 + 6 x24 * x29 - 4 x24 * x31
   - 36 x24 * x32 - 42 x24 * x33 + 96 x24 * x34 + 50 x24 * x35
   - 56 x24 * x36 - 84 x24 * x37 - 62 x24 * x38 - 86 x24 * x39 + 18 x25 ^2
   + 14 x25 * x26 + 96 x25 * x27 - 68 x25 * x28 - 78 x25 * x29
   - 68 x25 * x30 + 80 x25 * x31 + 48 x25 * x32 + 30 x25 * x33
   + 2 x25 * x34 + 62 x25 * x35 - 12 x25 * x36 - 90 x25 * x37
   + 62 x25 * x38 + 12 x25 * x39 - 9 x26 ^2 + 10 x26 * x27 + 94 x26 * x28
   - 50 x26 * x29 + 68 x26 * x30 + 66 x26 * x31 - 82 x26 * x32
   - 54 x26 * x33 + 30 x26 * x34 + 40 x26 * x35 + 52 x26 * x36
   + 44 x26 * x37 + 74 x26 * x38 - 24 x26 * x39 - 24 x27 ^2 - 30 x27 * x28
   - 54 x27 * x29 + 68 x27 * x30 - 76 x27 * x31 - 44 x27 * x32
   + 68 x27 * x33 - 6 x27 * x34 - 84 x27 * x35 + 64 x27 * x36
   + 46 x27 * x37 - 50 x27 * x38 - 78 x27 * x39 + 56 x28 * x30
   - 62 x28 * x32 + 66 x28 * x33 + 54 x28 * x34 - 4 x28 * x36
   - 12 x28 * x37 + 18 x28 * x38 + 18 x28 * x39 + 44 x29 ^2 + 80 x29 * x30
   - 42 x29 * x31 - 54 x29 * x32 - 36 x29 * x33 - 84 x29 * x34
   + 62 x29 * x35 - 82 x29 * x36 - 94 x29 * x37 + 8 x29 * x38
   + 74 x29 * x39 - 28 x30 * x32 + 32 x30 * x34 + 80 x30 * x35
   - 38 x30 * x36 - 58 x30 * x37 + 6 x30 * x38 + 82 x30 * x39 + 10 x31 ^2
   - 34 x31 * x32 + 30 x31 * x33 + 74 x31 * x34 - 52 x31 * x35
   + 62 x31 * x36 + 86 x31 * x37 + 98 x31 * x39 + 68 x32 * x33
   + 2 x32 * x34 + 16 x32 * x35 - 50 x32 * x36 - 74 x32 * x37
   + 78 x32 * x38 + 84 x32 * x39 - 16 x33 ^2 + 12 x33 * x34 - 54 x33 * x35
   + 4 x33 * x36 - 46 x33 * x37 - 78 x33 * x38 + 64 x33 * x39 + 39 x34 ^2
   - 50 x34 * x35 - 22 x34 * x36 - 26 x34 * x37 - 96 x34 * x38
   + 18 x34 * x39 + 92 x35 * x36 + 58 x35 * x38 + 78 x35 * x39 + 2 x36 ^2
   + 64 x36 * x37 - 40 x36 * x38 - 20 x36 * x39 + 36 x37 ^2 - 94 x37 * x38
   + 16 x37 * x39 - 5 x38 ^2 + 40 x38 * x39 + 49 x39 ^2 ] / 2 
Subject To
Bounds
 x0 <= 1
 x1 <= 1
 x2 <= 1
 x3 <= 1
 x4 <= 1
 x5 <= 1
 x6 <= 1
 x7 <= 1
 x8 <= 1
 x9 <= 1
 x10 <= 1
 x11 <= 1
 x12 <= 1
 x13 <= 1
 x14 <= 1
 x15 <= 1
 x16 <= 1
 x17 <= 1
 x18 <= 1
 x19 <= 1
 x20 <= 1
 x21 <= 1
 x22 <= 1
 x23 <= 1
 x24 <= 1
 x25 <= 1
 x26 <= 1
 x27 <= 1
 x28 <= 1
 x29 <= 1
 x30 <= 1
 x31 <= 1
 x32 <= 1
 x33 <= 1
 x34 <= 1
 x35 <= 1
 x36 <= 1
 x37 <= 1
 x38 <= 1
 x39 <= 1
End
